(assert (forall ((pkt_0_6_8_0  Int  )(pkt_1_7_9_0  Int  )(state_group_0_state_0_8_a_0  Int  )(state_group_1_state_0_9_b_0  Int  )(state_group_2_state_0_a_c_0  Int  )) (let ((_n0 pkt_0_6_8_0 ))
(let ((_n1 state_group_0_state_0_8_a_0 ))
(let ((_n2 (+   _n1   _n0 ) ))
(let ((_n3 false ))
(let ((_n4 (=   (ite  _n3  1 0)   _n0 ) ))
(let ((_n5 (not  _n4 ) ))
(let ((_n6 (ite (=  _n0  0)  (ite  _n3  1 0)   _n0  ) ))
(let ((_n7 (+   _n1   _n6 ) ))
(let ((_n8 (ite (=  (ite  _n5  1 0)  1)  _n7   _n1  ) ))
(let ((_n9 (=   _n8   _n2 ) ))
(let ((_n11 30 ))
(let ((_n12 pkt_1_7_9_0 ))
(let ((_n13 (<   _n12   _n11 ) ))
(let ((_n14 state_group_1_state_0_9_b_0 ))
(let ((_n15 (+   _n14   _n12 ) ))
(let ((_n16 (ite  _n13   _n15   _n14  ) ))
(let ((_n17 (-  _n12 )))
(let ((_n18 (+   _n11   _n17 ) ))
(let ((_n19 (-  _n18 )))
(let ((_n20 (<   _n19   (ite  _n3  1 0) ) ))
(let ((_n21 (+   _n11   _n19 ) ))
(let ((_n22 (ite  _n20   _n21   (ite  _n3  1 0)  ) ))
(let ((_n23 (+   _n14   _n22 ) ))
(let ((_n24 (ite (=  (ite  _n20  1 0)  1)  _n23   _n14  ) ))
(let ((_n25 (=   _n24   _n16 ) ))
(let ((_n27 state_group_2_state_0_a_c_0 ))
(let ((_n28 true ))
(let ((_n29 (+   _n27   (ite  _n28  1 0) ) ))
(let ((_n30 (ite  _n13   _n29   _n27  ) ))
(let ((_n31 (- 30) ))
(let ((_n32 (<   _n31   _n17 ) ))
(let ((_n33 (+   _n27   (ite  _n32  1 0) ) ))
(let ((_n34 (ite (=  (ite  _n32  1 0)  1)  _n33   _n27  ) ))
(let ((_n35 (=   _n34   _n30 ) ))
(let ((_n37 (=   _n21   _n12 ) ))
(implies  (and (and (>= state_group_2_state_0_a_c_0 0) (< state_group_2_state_0_a_c_0 1024 ))  (and (and (>= state_group_1_state_0_9_b_0 0) (< state_group_1_state_0_9_b_0 1024 ))  (and (and (>= state_group_0_state_0_8_a_0 0) (< state_group_0_state_0_8_a_0 1024 ))  (and (and (>= pkt_1_7_9_0 0) (< pkt_1_7_9_0 1024 ))  (and (>= pkt_0_6_8_0 0) (< pkt_0_6_8_0 1024 )) ) ) ) )   (and  _n9  _n25  _n35  _n37 )  ))))))))))))))))))))))))))))))))))))))
(check-sat)
(get-model)
(exit)